benchmarks/Factorization/qdimacs/factorization14.qdimacs
c Qdimacs file from skolem function generator
p cnf 295 978
a 281 282 283 284 285 286 287 288 289 290 291 292 293 294 0
e 267 268 269 270 271 272 273 274 275 276 277 278 279 280 1 2 3 4 5 6 7 8 9 10 11 12 13 14 15 16 17 18 19 20 21 22 23 24 25 26 27 28 29 30 31 32 33 34 35 36 37 38 39 40 41 42 43 44 45 46 47 48 49 50 51 52 53 54 55 56 57 58 59 60 61 62 63 64 65 66 67 68 69 70 71 72 73 74 75 76 77 78 79 80 81 82 83 84 85 86 87 88 89 90 91 92 93 94 95 96 97 98 99 100 101 102 103 104 105 106 107 108 109 110 111 112 113 114 115 116 117 118 119 120 121 122 123 124 125 126 127 128 129 130 131 132 133 134 135 136 137 138 139 140 141 142 143 144 145 146 147 148 149 150 151 152 153 154 155 156 157 158 159 160 161 162 163 164 165 166 167 168 169 170 171 172 173 174 175 176 177 178 179 180 181 182 183 184 185 186 187 188 189 190 191 192 193 194 195 196 197 198 199 200 201 202 203 204 205 206 207 208 209 210 211 212 213 214 215 216 217 218 219 220 221 222 223 224 225 226 227 228 229 230 231 232 233 234 235 236 237 238 239 240 241 242 243 244 245 246 247 248 249 250 251 252 253 254 255 256 257 258 259 260 261 262 263 264 265 266 295 0
4 5 217 -221 0
-4 221 0
-4 -217 0
-4 -5 0
5 282 -6 0
5 -282 6 0
-5 -282 -6 0
-5 282 6 0
6 -7 -212 0
6 7 212 0
-6 7 -212 0
-6 -7 212 0
7 8 183 0
-7 -8 0
-7 -183 0
8 -272 -280 -9 0
-8 272 0
-8 280 0
-8 9 0
9 -10 -178 0
9 10 178 0
-9 10 -178 0
-9 -10 178 0
10 11 149 0
-10 -11 0
-10 -149 0
11 -272 -279 -12 0
-11 272 0
-11 279 0
-11 12 0
12 -13 -144 0
12 13 144 0
-12 13 -144 0
-12 -13 144 0
13 14 115 0
-13 -14 0
-13 -115 0
14 -272 -278 -15 0
-14 272 0
-14 278 0
-14 15 0
15 -16 -110 0
15 16 110 0
-15 16 -110 0
-15 -16 110 0
16 17 81 0
-16 -17 0
-16 -81 0
17 -272 -277 -18 0
-17 272 0
-17 277 0
-17 18 0
18 -19 -79 0
18 19 79 0
-18 19 -79 0
-18 -19 79 0
19 20 48 0
-19 -20 0
-19 -48 0
20 -272 -276 -21 0
-20 272 0
-20 276 0
-20 21 0
21 22 -23 0
21 274 -22 23 0
21 272 -22 23 0
-21 22 23 0
-21 -22 -23 0
-21 -272 -274 23 0
22 -273 -275 0
-22 273 0
-22 275 0
23 24 45 0
-23 -24 0
-23 -45 0
24 25 26 0
-24 -25 0
-24 -26 0
25 -271 -272 -274 -275 0
-25 275 0
-25 271 0
-25 274 0
-25 272 0
26 27 -42 0
-26 -27 0
-26 42 0
27 28 29 0
-27 -28 0
-27 -29 0
28 -270 -271 -274 -275 0
-28 275 0
-28 270 0
-28 274 0
-28 271 0
29 30 -39 0
-29 -30 0
-29 39 0
30 31 32 0
-30 -31 0
-30 -32 0
31 -269 -270 -274 -275 0
-31 275 0
-31 269 0
-31 274 0
-31 270 0
32 33 -36 0
-32 -33 0
-32 36 0
33 34 35 0
-33 -34 0
-33 -35 0
34 -267 -268 -274 -275 0
-34 275 0
-34 267 0
-34 274 0
-34 268 0
35 -268 -269 -274 -275 0
-35 275 0
-35 268 0
-35 274 0
-35 269 0
36 37 -38 0
36 -37 38 0
-36 -37 -38 0
-36 37 38 0
37 -270 -274 0
-37 270 0
-37 274 0
38 -269 -275 0
-38 269 0
-38 275 0
39 40 -41 0
39 -40 41 0
-39 -40 -41 0
-39 40 41 0
40 -271 -274 0
-40 271 0
-40 274 0
41 -270 -275 0
-41 270 0
-41 275 0
42 43 -44 0
42 -43 44 0
-42 -43 -44 0
-42 43 44 0
43 -272 -274 0
-43 272 0
-43 274 0
44 -271 -275 0
-44 271 0
-44 275 0
45 -46 -47 0
45 46 47 0
-45 46 -47 0
-45 -46 47 0
46 -272 -275 0
-46 272 0
-46 275 0
47 -273 -274 0
-47 273 0
-47 274 0
48 49 -77 0
-48 -49 0
-48 77 0
49 50 52 0
-49 -50 0
-49 -52 0
50 -271 -276 -51 0
-50 271 0
-50 276 0
-50 51 0
51 24 -45 0
51 -24 45 0
-51 -24 -45 0
-51 24 45 0
52 53 -75 0
-52 -53 0
-52 75 0
53 54 56 0
-53 -54 0
-53 -56 0
54 -270 -276 -55 0
-54 270 0
-54 276 0
-54 55 0
55 -27 -42 0
55 27 42 0
-55 27 -42 0
-55 -27 42 0
56 57 -73 0
-56 -57 0
-56 73 0
57 58 60 0
-57 -58 0
-57 -60 0
58 -269 -276 -59 0
-58 269 0
-58 276 0
-58 59 0
59 -30 -39 0
59 30 39 0
-59 30 -39 0
-59 -30 39 0
60 61 -71 0
-60 -61 0
-60 71 0
61 62 64 0
-61 -62 0
-61 -64 0
62 -268 -276 -63 0
-62 268 0
-62 276 0
-62 63 0
63 -33 -36 0
63 33 36 0
-63 33 -36 0
-63 -33 36 0
64 -65 -69 0
-64 65 0
-64 69 0
65 -267 -276 -66 0
-65 267 0
-65 276 0
-65 66 0
66 34 -67 68 0
66 -34 -67 -68 0
66 34 67 -68 0
-66 -34 68 0
-66 -34 67 0
-66 67 68 0
-66 34 -67 -68 0
67 -269 -274 0
-67 269 0
-67 274 0
68 -268 -275 0
-68 268 0
-68 275 0
69 63 -70 0
69 -63 70 0
-69 -63 -70 0
-69 63 70 0
70 -268 -276 0
-70 268 0
-70 276 0
71 59 -72 0
71 -59 72 0
-71 -59 -72 0
-71 59 72 0
72 -269 -276 0
-72 269 0
-72 276 0
73 55 -74 0
73 -55 74 0
-73 -55 -74 0
-73 55 74 0
74 -270 -276 0
-74 270 0
-74 276 0
75 51 -76 0
75 -51 76 0
-75 -51 -76 0
-75 51 76 0
76 -271 -276 0
-76 271 0
-76 276 0
77 78 -21 0
77 -78 21 0
-77 -78 -21 0
-77 78 21 0
78 -272 -276 0
-78 272 0
-78 276 0
79 276 -80 0
79 -273 -276 80 0
-79 273 -276 0
-79 276 80 0
-79 -276 -80 0
80 -273 -275 -23 0
80 -273 -275 -43 0
-80 273 0
-80 275 0
-80 43 23 0
81 82 -108 0
-81 -82 0
-81 108 0
82 83 85 0
-82 -83 0
-82 -85 0
83 -271 -277 -84 0
-83 271 0
-83 277 0
-83 84 0
84 -49 -77 0
84 49 77 0
-84 49 -77 0
-84 -49 77 0
85 86 -106 0
-85 -86 0
-85 106 0
86 87 89 0
-86 -87 0
-86 -89 0
87 -270 -277 -88 0
-87 270 0
-87 277 0
-87 88 0
88 -53 -75 0
88 53 75 0
-88 53 -75 0
-88 -53 75 0
89 90 -104 0
-89 -90 0
-89 104 0
90 91 93 0
-90 -91 0
-90 -93 0
91 -269 -277 -92 0
-91 269 0
-91 277 0
-91 92 0
92 -57 -73 0
92 57 73 0
-92 57 -73 0
-92 -57 73 0
93 94 -102 0
-93 -94 0
-93 102 0
94 95 97 0
-94 -95 0
-94 -97 0
95 -268 -277 -96 0
-95 268 0
-95 277 0
-95 96 0
96 -61 -71 0
96 61 71 0
-96 61 -71 0
-96 -61 71 0
97 -98 -100 0
-97 98 0
-97 100 0
98 -267 -277 -99 0
-98 267 0
-98 277 0
-98 99 0
99 65 -69 0
99 -65 69 0
-99 -65 -69 0
-99 65 69 0
100 96 -101 0
100 -96 101 0
-100 -96 -101 0
-100 96 101 0
101 -268 -277 0
-101 268 0
-101 277 0
102 92 -103 0
102 -92 103 0
-102 -92 -103 0
-102 92 103 0
103 -269 -277 0
-103 269 0
-103 277 0
104 88 -105 0
104 -88 105 0
-104 -88 -105 0
-104 88 105 0
105 -270 -277 0
-105 270 0
-105 277 0
106 107 -84 0
106 -107 84 0
-106 -107 -84 0
-106 107 84 0
107 -271 -277 0
-107 271 0
-107 277 0
108 109 -18 0
108 -109 18 0
-108 -109 -18 0
-108 109 18 0
109 -272 -277 0
-109 272 0
-109 277 0
110 -111 -112 0
110 111 112 0
-110 111 -112 0
-110 -111 112 0
111 -273 -277 0
-111 273 0
-111 277 0
112 113 114 0
-112 -113 0
-112 -114 0
113 -276 -80 0
-113 276 0
-113 80 0
114 19 -79 0
-114 -19 0
-114 79 0
115 116 -142 0
-115 -116 0
-115 142 0
116 117 119 0
-116 -117 0
-116 -119 0
117 -271 -278 -118 0
-117 271 0
-117 278 0
-117 118 0
118 -82 -108 0
118 82 108 0
-118 82 -108 0
-118 -82 108 0
119 120 -140 0
-119 -120 0
-119 140 0
120 121 123 0
-120 -121 0
-120 -123 0
121 -270 -278 -122 0
-121 270 0
-121 278 0
-121 122 0
122 -86 -106 0
122 86 106 0
-122 86 -106 0
-122 -86 106 0
123 124 -138 0
-123 -124 0
-123 138 0
124 125 127 0
-124 -125 0
-124 -127 0
125 -269 -278 -126 0
-125 269 0
-125 278 0
-125 126 0
126 -90 -104 0
126 90 104 0
-126 90 -104 0
-126 -90 104 0
127 128 -136 0
-127 -128 0
-127 136 0
128 129 131 0
-128 -129 0
-128 -131 0
129 -268 -278 -130 0
-129 268 0
-129 278 0
-129 130 0
130 -94 -102 0
130 94 102 0
-130 94 -102 0
-130 -94 102 0
131 -132 -134 0
-131 132 0
-131 134 0
132 -267 -278 -133 0
-132 267 0
-132 278 0
-132 133 0
133 98 -100 0
133 -98 100 0
-133 -98 -100 0
-133 98 100 0
134 130 -135 0
134 -130 135 0
-134 -130 -135 0
-134 130 135 0
135 -268 -278 0
-135 268 0
-135 278 0
136 126 -137 0
136 -126 137 0
-136 -126 -137 0
-136 126 137 0
137 -269 -278 0
-137 269 0
-137 278 0
138 139 -122 0
138 -139 122 0
-138 -139 -122 0
-138 139 122 0
139 -270 -278 0
-139 270 0
-139 278 0
140 141 -118 0
140 -141 118 0
-140 -141 -118 0
-140 141 118 0
141 -271 -278 0
-141 271 0
-141 278 0
142 143 -15 0
142 -143 15 0
-142 -143 -15 0
-142 143 15 0
143 -272 -278 0
-143 272 0
-143 278 0
144 -145 -146 0
144 145 146 0
-144 145 -146 0
-144 -145 146 0
145 -273 -278 0
-145 273 0
-145 278 0
146 147 148 0
-146 -147 0
-146 -148 0
147 -273 -277 112 0
-147 273 0
-147 277 0
-147 -112 0
148 16 -110 0
-148 -16 0
-148 110 0
149 150 -176 0
-149 -150 0
-149 176 0
150 151 153 0
-150 -151 0
-150 -153 0
151 -271 -279 -152 0
-151 271 0
-151 279 0
-151 152 0
152 -116 -142 0
152 116 142 0
-152 116 -142 0
-152 -116 142 0
153 154 -174 0
-153 -154 0
-153 174 0
154 155 157 0
-154 -155 0
-154 -157 0
155 -270 -279 -156 0
-155 270 0
-155 279 0
-155 156 0
156 -120 -140 0
156 120 140 0
-156 120 -140 0
-156 -120 140 0
157 158 -172 0
-157 -158 0
-157 172 0
158 159 161 0
-158 -159 0
-158 -161 0
159 -269 -279 -160 0
-159 269 0
-159 279 0
-159 160 0
160 -124 -138 0
160 124 138 0
-160 124 -138 0
-160 -124 138 0
161 162 -170 0
-161 -162 0
-161 170 0
162 163 165 0
-162 -163 0
-162 -165 0
163 -268 -279 -164 0
-163 268 0
-163 279 0
-163 164 0
164 -128 -136 0
164 128 136 0
-164 128 -136 0
-164 -128 136 0
165 -166 -168 0
-165 166 0
-165 168 0
166 -267 -279 -167 0
-166 267 0
-166 279 0
-166 167 0
167 132 -134 0
167 -132 134 0
-167 -132 -134 0
-167 132 134 0
168 164 -169 0
168 -164 169 0
-168 -164 -169 0
-168 164 169 0
169 -268 -279 0
-169 268 0
-169 279 0
170 171 -160 0
170 -171 160 0
-170 -171 -160 0
-170 171 160 0
171 -269 -279 0
-171 269 0
-171 279 0
172 173 -156 0
172 -173 156 0
-172 -173 -156 0
-172 173 156 0
173 -270 -279 0
-173 270 0
-173 279 0
174 175 -152 0
174 -175 152 0
-174 -175 -152 0
-174 175 152 0
175 -271 -279 0
-175 271 0
-175 279 0
176 177 -12 0
176 -177 12 0
-176 -177 -12 0
-176 177 12 0
177 -272 -279 0
-177 272 0
-177 279 0
178 -179 -180 0
178 179 180 0
-178 179 -180 0
-178 -179 180 0
179 -273 -279 0
-179 273 0
-179 279 0
180 181 182 0
-180 -181 0
-180 -182 0
181 -273 -278 146 0
-181 273 0
-181 278 0
-181 -146 0
182 13 -144 0
-182 -13 0
-182 144 0
183 184 -210 0
-183 -184 0
-183 210 0
184 185 187 0
-184 -185 0
-184 -187 0
185 -271 -280 -186 0
-185 271 0
-185 280 0
-185 186 0
186 -150 -176 0
186 150 176 0
-186 150 -176 0
-186 -150 176 0
187 188 -208 0
-187 -188 0
-187 208 0
188 189 191 0
-188 -189 0
-188 -191 0
189 -270 -280 -190 0
-189 270 0
-189 280 0
-189 190 0
190 -154 -174 0
190 154 174 0
-190 154 -174 0
-190 -154 174 0
191 192 -206 0
-191 -192 0
-191 206 0
192 193 195 0
-192 -193 0
-192 -195 0
193 -269 -280 -194 0
-193 269 0
-193 280 0
-193 194 0
194 -158 -172 0
194 158 172 0
-194 158 -172 0
-194 -158 172 0
195 196 -204 0
-195 -196 0
-195 204 0
196 197 199 0
-196 -197 0
-196 -199 0
197 -268 -280 -198 0
-197 268 0
-197 280 0
-197 198 0
198 -162 -170 0
198 162 170 0
-198 162 -170 0
-198 -162 170 0
199 -200 -202 0
-199 200 0
-199 202 0
200 -267 -280 -201 0
-200 267 0
-200 280 0
-200 201 0
201 166 -168 0
201 -166 168 0
-201 -166 -168 0
-201 166 168 0
202 203 -198 0
202 -203 198 0
-202 -203 -198 0
-202 203 198 0
203 -268 -280 0
-203 268 0
-203 280 0
204 205 -194 0
204 -205 194 0
-204 -205 -194 0
-204 205 194 0
205 -269 -280 0
-205 269 0
-205 280 0
206 207 -190 0
206 -207 190 0
-206 -207 -190 0
-206 207 190 0
207 -270 -280 0
-207 270 0
-207 280 0
208 209 -186 0
208 -209 186 0
-208 -209 -186 0
-208 209 186 0
209 -271 -280 0
-209 271 0
-209 280 0
210 211 -9 0
210 -211 9 0
-210 -211 -9 0
-210 211 9 0
211 -272 -280 0
-211 272 0
-211 280 0
212 -213 -214 0
212 213 214 0
-212 213 -214 0
-212 -213 214 0
213 -273 -280 0
-213 273 0
-213 280 0
214 215 216 0
-214 -215 0
-214 -216 0
215 -273 -279 180 0
-215 273 0
-215 279 0
-215 -180 0
216 10 -178 0
-216 -10 0
-216 178 0
217 -281 -218 0
217 281 218 0
-217 281 -218 0
-217 -281 218 0
218 219 220 0
-218 -219 0
-218 -220 0
219 -273 -280 214 0
-219 273 0
-219 280 0
-219 -214 0
220 7 -212 0
-220 -7 0
-220 212 0
221 222 224 -226 0
-221 226 0
-221 -224 0
-221 -222 0
222 283 -223 0
222 -283 223 0
-222 -283 -223 0
-222 283 223 0
223 -184 -210 0
223 184 210 0
-223 184 -210 0
-223 -184 210 0
224 284 -225 0
224 -284 225 0
-224 -284 -225 0
-224 284 225 0
225 -188 -208 0
225 188 208 0
-225 188 -208 0
-225 -188 208 0
226 227 229 -231 0
-226 231 0
-226 -229 0
-226 -227 0
227 285 -228 0
227 -285 228 0
-227 -285 -228 0
-227 285 228 0
228 -192 -206 0
228 192 206 0
-228 192 -206 0
-228 -192 206 0
229 286 -230 0
229 -286 230 0
-229 -286 -230 0
-229 286 230 0
230 -196 -204 0
230 196 204 0
-230 196 -204 0
-230 -196 204 0
231 288 232 234 -236 0
231 -288 232 -234 -236 0
-231 236 0
-231 288 -234 0
-231 -232 0
-231 -288 234 0
232 287 -233 0
232 -287 233 0
-232 -287 -233 0
-232 287 233 0
233 200 -202 0
233 -200 202 0
-233 -200 -202 0
-233 200 202 0
234 201 -235 0
234 -201 235 0
-234 -201 -235 0
-234 201 235 0
235 -267 -280 0
-235 267 0
-235 280 0
236 289 237 239 -242 0
236 -289 -237 239 -242 0
-236 -239 0
-236 289 -237 0
-236 242 0
-236 -289 237 0
237 167 -238 0
237 -167 238 0
-237 -167 -238 0
-237 167 238 0
238 -267 -279 0
-238 267 0
-238 279 0
239 -290 240 0
-239 290 0
-239 -240 0
240 133 -241 0
240 -133 241 0
-240 -133 -241 0
-240 133 241 0
241 -267 -278 0
-241 267 0
-241 278 0
242 291 243 244 -246 0
242 -291 243 -244 -246 0
-242 246 0
-242 291 -244 0
-242 -243 0
-242 -291 244 0
243 290 -240 0
-243 -290 0
-243 240 0
244 99 -245 0
244 -99 245 0
-244 -99 -245 0
-244 99 245 0
245 -267 -277 0
-245 267 0
-245 277 0
246 292 247 249 -252 0
246 -292 -247 249 -252 0
-246 -249 0
-246 292 -247 0
-246 252 0
-246 -292 247 0
247 248 -66 0
247 -248 66 0
-247 -248 -66 0
-247 248 66 0
248 -267 -276 0
-248 267 0
-248 276 0
249 -267 -250 0
249 -267 -274 294 0
-249 267 0
-249 274 250 0
-249 -294 250 0
250 268 269 -251 0
-250 251 0
-250 -269 0
-250 -268 0
251 270 271 272 273 0
-251 -273 0
-251 -272 0
-251 -270 0
-251 -271 0
252 293 253 256 258 0
252 -293 -253 256 258 0
-252 -256 0
-252 -293 253 0
-252 -258 0
-252 293 -253 0
253 254 -255 0
253 -254 255 0
-253 -254 -255 0
-253 254 255 0
254 -268 -274 0
-254 268 0
-254 274 0
255 -267 -275 0
-255 267 0
-255 275 0
256 278 279 280 -257 0
-256 257 0
-256 -280 0
-256 -278 0
-256 -279 0
257 -274 275 276 277 0
-257 -277 0
-257 -276 0
-257 274 0
-257 -275 0
258 274 -294 0
258 267 -294 0
-258 294 0
-258 -267 -274 0
259 294 -260 0
259 -267 -274 -260 0
-259 260 0
-259 274 -294 0
-259 267 -294 0
260 293 253 256 -261 0
260 -293 -253 256 -261 0
-260 -256 0
-260 293 -253 0
-260 261 0
-260 -293 253 0
261 292 247 249 -262 0
261 -292 -247 249 -262 0
-261 -249 0
-261 292 -247 0
-261 262 0
-261 -292 247 0
262 291 243 244 -263 0
262 -291 243 -244 -263 0
-262 263 0
-262 291 -244 0
-262 -243 0
-262 -291 244 0
263 289 237 239 -264 0
263 -289 -237 239 -264 0
-263 -239 0
-263 289 -237 0
-263 264 0
-263 -289 237 0
264 288 232 234 -265 0
264 -288 232 -234 -265 0
-264 265 0
-264 288 -234 0
-264 -232 0
-264 -288 234 0
265 224 227 229 -266 0
-265 266 0
-265 -229 0
-265 -224 0
-265 -227 0
266 5 217 222 0
-266 -5 0
-266 -222 0
-266 -217 0
295 0
2 -4 0
-2 4 0
3 -259 0
-3 259 0
3 0

